p cnf 729 81
6 0
-10 0
-19 0
-28 0
-37 0
53 0
-55 0
-64 0
-73 0
-82 0
-91 0
-100 0
-109 0
124 0
-127 0
-136 0
153 0
-154 0
-163 0
-172 0
181 0
-190 0
-199 0
-208 0
-217 0
-226 0
-235 0
-244 0
-253 0
-262 0
276 0
-280 0
290 0
-298 0
-307 0
-316 0
-325 0
-334 0
-343 0
354 0
-361 0
-370 0
-379 0
391 0
401 0
-406 0
-415 0
-424 0
-433 0
-442 0
-451 0
-460 0
475 0
-478 0
-487 0
500 0
508 0
-514 0
-523 0
-532 0
-541 0
-550 0
-559 0
-568 0
-577 0
592 0
-595 0
-604 0
-613 0
-622 0
-631 0
647 0
-649 0
-658 0
-667 0
676 0
-685 0
-694 0
708 0
-712 0
-721 0
